0100010000001000000000000         40
0100010000001000000000000         40
0000001000000000000000010        104
0000001000000000000100000        144
0000001000000000000100000        144
0000001000000000000100000        144
0000001000000000000100000        144
0000001000000000000100000        144
0000001000000000000100000        144
0000001000000000000100000        144
0000000000010000000100001        199
0000000000010000000100001        199
0000000000010000000100001        199
0000000000010000000100001        199
0000000000010000000100001        199
0000000000010000000100001        199
0000000000010000000100001        199
0000000000010000000100001        199
0000000000010000000100001        199
0000000000010000000100001        199
0000000000010000000100001        199
0000000000010000000100001        199
0000000000010000000100001        199
0000000000010000000100001        199
0000000000010000000100001        199
0000000000010000000100001        199
0000000000010000000100001        199
0000000000010000000100001        199
0000000000010000000100001        199
0000000000010000000100001        199
0000000000010000000100001        199
0000000000010000000100001        199
0000000000010000000100001        199
0000000000010000000100001        199
0000000000010000000100001        199
0000000000010000000100001        199
0000000000010000000100001        199
0000000000010000000100001        199
0000000000010000000100001        199
0000000000010000000100001        199
0000000000010000000100001        199
0000000000010000000100001        199
0000000000010000000100001        199
0000000000010000000100001        199
0000000000010000000100001        199
0000000000010000000100001        199
0000000000010000000100001        199
0000000000010000000100001        199
0000000000010000000100001        199
0000000000010000000100001        199
0000000000010000000100001        199
0000000000010000000100001        199
0000000000010000000100001        199
0000000000010000000100001        199
0000000000010000000100001        199
0000000000010000000100001        199
0000000000010000000100001        199
0000000000010000000100001        199
0000000000010000000100001        199
0000000000010000000100001        199
0000000000010000000100001        199
0000000000010000000100001        199
0000000000010000000100001        199
0000000000010000000100001        199
0000000000010000000100001        199
0000000000010000000100001        199
0000000000010000000100001        199
0000000000010000000100001        199
0000000000010000000100001        199
0000000000010000000100001        199
0000000000010000000100001        199
0000000000010000000100001        199
0000000000010000000100001        199
0000000000010000000100001        199
0000000000010000000100001        199
0000000000010000000100001        199
0000000000010000000100001        199
0000000000010000000100001        199
0000000000010000000100001        199
0000000000010000000100001        199
0000000000010000000100001        199
0000000000010000000100001        199
0000000000010000000100001        199
0000000000010000000100001        199
0000000000010000000100001        199
0000000000010000000100001        199
0000000000010000000100001        199
0000000000010000000100001        199
0000000000010000000100001        199
0000000000010000000100001        199
0000000000010000000100001        199
0000000000010000000100001        199
0000000000010000000100001        199
0000000000010000000100001        199
0000000000010000000100001        199
0000000000010000000100001        199
0000000000010000000100001        199
0000000000010000000100001        199
0000000000010000000100001        199
0000000000010000000100001        199
0000000000010000000100001        199
0000000000010000000100001        199
0000000000010000000100001        199
0000000000010000000100001        199
0000000000010000000100001        199
0000000000010000000100001        199
0000000000010000000100001        199
0000000000010000000100001        199
0000000000010000000100001        199
0000000000010000000100001        199
0000000000010000000100001        199
0000000000010000000100001        199
0000000000010000000100001        199
0000000000010000000100001        199
0000000000010000000100001        199
0000000000010000000100001        199
0000000000010000000100001        199
0000000000010000000100001        199
0000000000010000000100001        199
0000000000010000000100001        199
0000000000010000000100001        199
0000000000010000000100001        199
0000000000010000000100001        199
0000000000010000000100001        199
0000000000010000000100001        199
0000000000010000000100001        199
0000000000010000000100001        199
0000000000010000000100001        199
0000000000010000000100001        199
0000000000010000000100001        199
0000000000010000000100001        199
0000000000010000000100001        199
0000000000010000000100001        199
0000000000010000000100001        199
0000000000010000000100001        199
0000000000010000000100001        199
0000000000010000000100001        199
0000000000010000000100001        199
0000000000010000000100001        199
0000000000010000000100001        199
0000000000010000000100001        199
0000000000010000000100001        199
0000000000010000000100001        199
0000000000010000000100001        199
0000000000010000000100001        199
0000000000010000000100001        199
0000000000010000000100001        199
0000000000010000000100001        199
0000000000010000000100001        199
0000000000010000000100001        199
0000000000010000000100001        199
0000000000010000000100001        199
0000000000010000000100001        199
0000000000010000000100001        199
0000000000010000000100001        199
0000000000010000000100001        199
0000000000010000000100001        199
0000000000010000000100001        199
0000000000010000000100001        199
0000000000010000000100001        199
0000000000010000000100001        199
0000000000010000000100001        199
0000000000010000000100001        199
0000000000010000000100001        199
0000000000010000000100001        199
0000000000010000000100001        199
0000000000010000000100001        199
0000000000010000000100001        199
0000000000010000000100001        199
0000000000010000000100001        199
0000000000010000000100001        199
0000000000010000000100001        199
0000000000010000000100001        199
0000000000010000000100001        199
0000000000010000000100001        199
0000000000010000000100001        199
0000000000010000000100001        199
0000000000010000000100001        199
0000000000010000000100001        199
0000000000010000000100001        199
0000000000010000000100001        199
0000000000010000000100001        199
0000000000010000000100001        199
0000000000010000000100001        199
0000000000010000000100001        199
0000000000010000000100001        199
0000000000010000000100001        199
0000000000010000000100001        199
0000000000010000000100001        199
0000000000010000000100001        199
0000000000010000000100001        199
0000000000010000000100001        199
0000000000010000000100001        199
0000000000010000000100001        199
0000000000010000000100001        199
0000000000010000000100001        199
0000000000010000000100001        199
0000000000010000000100001        199
0000000000010000000100001        199
0000000000010000000100001        199
0000000000010000000100001        199
0000000000010000000100001        199
0000000000010000000100001        199
0000000000010000000100001        199
0000000000010000000100001        199
0000000000010000000100001        199
0000000000010000000100001        199
0000000000010000000100001        199
0000000000010000000100001        199
0000000000010000000100001        199
0000000000010000000100001        199
0000000000010000000100001        199
0000000000010000000100001        199
0000000000010000000100001        199
0000000000010000000100001        199
0000000000010000000100001        199
0000000000010000000100001        199
0000000000010000000100001        199
0000000000010000000100001        199
0000000000010000000100001        199
0000000000010000000100001        199
0000000000010000000100001        199
0000000000010000000100001        199
0000000000010000000100001        199
0000000000010000000100001        199
0000000000010000000100001        199
0000000000010000000100001        199
0000000000010000000100001        199
0000000000010000000100001        199
0000000000010000000100001        199
0000000000010000000100001        199
0000000000010000000100001        199
0000000000010000000100001        199
0000000000010000000100001        199
0000000000010000000100001        199
0000000000010000000100001        199
0000000000010000000100001        199
0000000000010000000100001        199
0000000000010000000100001        199
0000000000010000000100001        199
0000000000010000000100001        199
0000000000010000000100001        199
0000000000010000000100001        199
0000000000010000000100001        199
0000000000010000000100001        199
0000000000010000000100001        199
0000000000010000000100001        199
0000000000010000000100001        199
0000000000010000000100001        199
0000000000010000000100001        199
0000000000010000000100001        199
0000000000010000000100001        199
0000000000010000000100001        199
0000000000010000000100001        199
0000000000010000000100001        199
0000000000010000000100001        199
0000000000010000000100001        199
0000000000010000000100001        199
0000000000010000000100001        199
0000000000010000000100001        199
0000000000010000000100001        199
0000000000010000000100001        199
0000000000010000000100001        199
0000000000010000000100001        199
0000000000010000000100001        199
0000000000010000000100001        199
0000000000010000000100001        199
0000000000010000000100001        199
0000000000010000000100001        199
0000000000010000000100001        199
0000000000010000000100001        199
0000000000011000000100001        231
0000000000011000000100001        231
0000000000011000000100001        231
0000000000011000000100001        231
0000000000011000000100001        231
0000000000011000000100001        231
0000000000011000000100001        231
0000000000011000000100001        231
0000000000011000000100001        231
0000000000011000000100001        231
0000000000011000000100001        231
0000000000011000000100001        231
0000000000011000000100001        231
0000000000011000000100001        231
0000000000011000000100001        231
0000000000011000000100001        231
0000000000011000000100001        231
0000000000011000000100001        231
0000000000011000000100001        231
0000000000011000000100001        231
0000000000011000000100001        231
0000000000011000000100001        231
0000000000011000000100001        231
0000000000011000000100001        231
0000000000011000000100001        231
0000000000011000000100001        231
0000000000011000000100001        231
0000000000011000000100001        231
0000000000011000000100001        231
